NAME          
ROWS
 N  OBJ
 L  c1
 L  c2
 L  c3
 L  c4
 L  c5
COLUMNS
    MARKER    'MARKER'                 'INTORG'
    x[1]      c1        968
    x[1]      c2        698
    x[1]      c3        705
    x[1]      c4        565
    x[1]      c5        463
    x[1]      OBJ       -112
    x[2]      c1        433
    x[2]      c2        278
    x[2]      c3        570
    x[2]      c4        307
    x[2]      c5        947
    x[2]      OBJ       -995
    x[3]      c1        540
    x[3]      c2        582
    x[3]      c3        535
    x[3]      c4        793
    x[3]      c5        940
    x[3]      OBJ       -858
    x[4]      c1        661
    x[4]      c2        213
    x[4]      c3        60
    x[4]      c4        604
    x[4]      c5        254
    x[4]      OBJ       -948
    x[5]      c1        337
    x[5]      c2        738
    x[5]      c3        145
    x[5]      c4        71
    x[5]      c5        174
    x[5]      OBJ       -675
    x[6]      c1        679
    x[6]      c2        398
    x[6]      c3        772
    x[6]      c4        192
    x[6]      c5        26
    x[6]      OBJ       -467
    x[7]      c1        246
    x[7]      c2        298
    x[7]      c3        218
    x[7]      c4        226
    x[7]      c5        415
    x[7]      OBJ       -973
    x[8]      c1        300
    x[8]      c2        542
    x[8]      c3        5
    x[8]      c4        340
    x[8]      c5        496
    x[8]      OBJ       -697
    x[9]      c1        40
    x[9]      c2        450
    x[9]      c3        512
    x[9]      c4        76
    x[9]      c5        877
    x[9]      OBJ       -837
    x[10]     c1        180
    x[10]     c2        575
    x[10]     c3        685
    x[10]     c4        461
    x[10]     c5        879
    x[10]     OBJ       -465
    x[11]     c1        115
    x[11]     c2        209
    x[11]     c3        999
    x[11]     c4        962
    x[11]     c5        731
    x[11]     OBJ       -462
    x[12]     c1        623
    x[12]     c2        221
    x[12]     c3        349
    x[12]     c4        300
    x[12]     c5        496
    x[12]     OBJ       -631
    x[13]     c1        482
    x[13]     c2        838
    x[13]     c3        811
    x[13]     c4        853
    x[13]     c5        929
    x[13]     OBJ       -723
    x[14]     c1        868
    x[14]     c2        821
    x[14]     c3        856
    x[14]     c4        30
    x[14]     c5        463
    x[14]     OBJ       -762
    x[15]     c1        988
    x[15]     c2        42
    x[15]     c3        144
    x[15]     c4        709
    x[15]     c5        2
    x[15]     OBJ       -593
    x[16]     c1        928
    x[16]     c2        784
    x[16]     c3        992
    x[16]     c4        181
    x[16]     c5        883
    x[16]     OBJ       -875
    x[17]     c1        567
    x[17]     c2        810
    x[17]     c3        83
    x[17]     c4        426
    x[17]     c5        715
    x[17]     OBJ       -222
    x[18]     c1        572
    x[18]     c2        281
    x[18]     c3        245
    x[18]     c4        763
    x[18]     c5        92
    x[18]     OBJ       -32
    x[19]     c1        617
    x[19]     c2        773
    x[19]     c3        782
    x[19]     c4        308
    x[19]     c5        724
    x[19]     OBJ       -441
    x[20]     c1        642
    x[20]     c2        271
    x[20]     c3        64
    x[20]     c4        419
    x[20]     c5        175
    x[20]     OBJ       -2
    x[21]     c1        209
    x[21]     c2        289
    x[21]     c3        44
    x[21]     c4        178
    x[21]     c5        42
    x[21]     OBJ       -588
    x[22]     c1        586
    x[22]     c2        675
    x[22]     c3        143
    x[22]     c4        945
    x[22]     c5        460
    x[22]     OBJ       -31
    x[23]     c1        22
    x[23]     c2        455
    x[23]     c3        188
    x[23]     c4        405
    x[23]     c5        30
    x[23]     OBJ       -934
    x[24]     c1        163
    x[24]     c2        265
    x[24]     c3        899
    x[24]     c4        257
    x[24]     c5        959
    x[24]     OBJ       -301
    x[25]     c1        749
    x[25]     c2        147
    x[25]     c3        10
    x[25]     c4        894
    x[25]     c5        232
    x[25]     OBJ       -542
RHS
    rhs       c1        6258
    rhs       c2        5826
    rhs       c3        5408
    rhs       c4        5632
    rhs       c5        6202
RANGES
BOUNDS
 BV bounds    x[1]
 BV bounds    x[2]
 BV bounds    x[3]
 BV bounds    x[4]
 BV bounds    x[5]
 BV bounds    x[6]
 BV bounds    x[7]
 BV bounds    x[8]
 BV bounds    x[9]
 BV bounds    x[10]
 BV bounds    x[11]
 BV bounds    x[12]
 BV bounds    x[13]
 BV bounds    x[14]
 BV bounds    x[15]
 BV bounds    x[16]
 BV bounds    x[17]
 BV bounds    x[18]
 BV bounds    x[19]
 BV bounds    x[20]
 BV bounds    x[21]
 BV bounds    x[22]
 BV bounds    x[23]
 BV bounds    x[24]
 BV bounds    x[25]
ENDATA
